nK = 2731;
nT = 8;
nI = 21;
L = 29;
TT = 642;
np = 1;
nc = 3;
b = [37, 34, 46, 34, 43, 57, 53, 25, 67, 46, 37, 58, 62, 52, 42, 52, 61, 39, 44, 50, 35];
d = [88, 70, 75, 91, 133, 110, 122, 38, 113, 81, 139, 140, 132, 105, 144, 150, 147, 110, 115, 124, 123];
m = [2.4, 1.8, 1.5, 1.8, 1.9, 1, 1.8, 2, 2.4, 1, 1.3, 2.1, 1, 2.4, 1.4, 1.2, 2, 1, 1.1, 2.1, 1.1];
pt = [0.3, 0.29, 0.34, 0.32, 0.26, 0.29, 0.24, 0.23];
st = [16.8, 13.63, 19.72, 16.64, 13.78, 12.76, 10.08, 13.8];
arc = {<1, 0, 1, 1, 0, 0, 0, [1, 1, 1, 1, 1, 1, 1, 1]>, <2, 1, 2, 1, 0, 0, 0, [1, 1, 1, 1, 1, 1, 1, 1]>, <3, 2, 3, 1, 0, 0, 0, [1, 1, 1, 1, 1, 1, 1, 1]>, <4, 3, 4, 1, 0, 0, 0, [1, 1, 1, 1, 1, 1, 1, 1]>, <5, 4, 5, 1, 0, 0, 0, [1, 1, 1, 1, 1, 1, 1, 1]>, <6, 5, 6, 1, 0, 0, 0, [1, 1, 1, 1, 1, 1, 1, 1]>, <7, 6, 7, 1, 0, 0, 0, [1, 1, 1, 1, 1, 1, 1, 1]>, <8, 7, 8, 1, 0, 0, 0, [1, 1, 1, 1, 1, 1, 1, 1]>, <9, 8, 9, 1, 0, 0, 0, [1, 1, 1, 1, 1, 1, 1, 1]>, <10, 9, 10, 1, 0, 0, 0, [1, 1, 1, 1, 1, 1, 1, 1]>, <11, 10, 11, 1, 0, 0, 0, [1, 1, 1, 1, 1, 1, 1, 1]>, <12, 11, 12, 1, 0, 0, 0, [1, 1, 1, 1, 1, 1, 1, 1]>, <13, 12, 13, 1, 0, 0, 0, [1, 1, 1, 1, 1, 1, 1, 1]>, <14, 13, 14, 1, 0, 0, 0, [1, 1, 1, 1, 1, 1, 1, 1]>, <15, 14, 15, 1, 0, 0, 0, [1, 1, 1, 1, 1, 1, 1, 1]>, <16, 15, 16, 1, 0, 0, 0, [1, 1, 1, 1, 1, 1, 1, 1]>, <17, 16, 17, 1, 0, 0, 0, [1, 1, 1, 1, 1, 1, 1, 1]>, <18, 17, 18, 1, 0, 0, 0, [1, 1, 1, 1, 1, 1, 1, 1]>, <19, 18, 19, 1, 0, 0, 0, [1, 1, 1, 1, 1, 1, 1, 1]>, <20, 19, 20, 1, 0, 0, 0, [1, 1, 1, 1, 1, 1, 1, 1]>, <21, 20, 21, 1, 0, 0, 0, [1, 1, 1, 1, 1, 1, 1, 1]>, <22, 21, 22, 1, 0, 0, 0, [1, 1, 1, 1, 1, 1, 1, 1]>, <23, 22, 23, 1, 0, 0, 0, [1, 1, 1, 1, 1, 1, 1, 1]>, <24, 23, 24, 1, 0, 0, 0, [1, 1, 1, 1, 1, 1, 1, 1]>, <25, 24, 25, 1, 0, 0, 0, [1, 1, 1, 1, 1, 1, 1, 1]>, <26, 25, 26, 1, 0, 0, 0, [1, 1, 1, 1, 1, 1, 1, 1]>, <27, 26, 27, 1, 0, 0, 0, [1, 1, 1, 1, 1, 1, 1, 1]>, <28, 27, 28, 1, 0, 0, 0, [1, 1, 1, 1, 1, 1, 1, 1]>, <29, 28, 29, 1, 0, 0, 0, [1, 1, 1, 1, 1, 1, 1, 1]>, <30, 0, 16, 16, 1, 0, 0, [1, 0, 0, 0, 0, 0, 0, 1]>, <31, 1, 17, 16, 1, 0, 0, [1, 0, 0, 0, 0, 0, 0, 1]>, <32, 2, 18, 16, 1, 0, 0, [1, 0, 0, 0, 0, 0, 0, 1]>, <33, 3, 19, 16, 1, 0, 0, [1, 0, 0, 0, 0, 0, 0, 1]>, <34, 4, 20, 16, 1, 0, 0, [1, 0, 0, 0, 0, 0, 0, 1]>, <35, 5, 21, 16, 1, 0, 0, [1, 0, 0, 0, 0, 0, 0, 1]>, <36, 6, 22, 16, 1, 0, 0, [1, 0, 0, 0, 0, 0, 0, 1]>, <37, 7, 23, 16, 1, 0, 0, [1, 0, 0, 0, 0, 0, 0, 1]>, <38, 8, 24, 16, 1, 0, 0, [1, 0, 0, 0, 0, 0, 0, 1]>, <39, 9, 25, 16, 1, 0, 0, [1, 0, 0, 0, 0, 0, 0, 1]>, <40, 10, 26, 16, 1, 0, 0, [1, 0, 0, 0, 0, 0, 0, 1]>, <41, 11, 27, 16, 1, 0, 0, [1, 0, 0, 0, 0, 0, 0, 1]>, <42, 12, 28, 16, 1, 0, 0, [1, 0, 0, 0, 0, 0, 0, 1]>, <43, 13, 29, 16, 1, 0, 0, [1, 0, 0, 0, 0, 0, 0, 1]>, <44, 0, 17, 17, 2, 0, 0, [0, 0, 0, 0, 0, 0, 1, 1]>, <45, 1, 18, 17, 2, 0, 0, [0, 0, 0, 0, 0, 0, 1, 1]>, <46, 2, 19, 17, 2, 0, 0, [0, 0, 0, 0, 0, 0, 1, 1]>, <47, 3, 20, 17, 2, 0, 0, [0, 0, 0, 0, 0, 0, 1, 1]>, <48, 4, 21, 17, 2, 0, 0, [0, 0, 0, 0, 0, 0, 1, 1]>, <49, 5, 22, 17, 2, 0, 0, [0, 0, 0, 0, 0, 0, 1, 1]>, <50, 6, 23, 17, 2, 0, 0, [0, 0, 0, 0, 0, 0, 1, 1]>, <51, 7, 24, 17, 2, 0, 0, [0, 0, 0, 0, 0, 0, 1, 1]>, <52, 8, 25, 17, 2, 0, 0, [0, 0, 0, 0, 0, 0, 1, 1]>, <53, 9, 26, 17, 2, 0, 0, [0, 0, 0, 0, 0, 0, 1, 1]>, <54, 10, 27, 17, 2, 0, 0, [0, 0, 0, 0, 0, 0, 1, 1]>, <55, 11, 28, 17, 2, 0, 0, [0, 0, 0, 0, 0, 0, 1, 1]>, <56, 12, 29, 17, 2, 0, 0, [0, 0, 0, 0, 0, 0, 1, 1]>, <57, 0, 15, 15, 3, 0, 1, [0, 0, 0, 0, 0, 0, 1, 1]>, <58, 1, 16, 15, 3, 0, 1, [0, 0, 0, 0, 0, 0, 1, 1]>, <59, 2, 17, 15, 3, 0, 1, [0, 0, 0, 0, 0, 0, 1, 1]>, <60, 3, 18, 15, 3, 0, 1, [0, 0, 0, 0, 0, 0, 1, 1]>, <61, 4, 19, 15, 3, 0, 1, [0, 0, 0, 0, 0, 0, 1, 1]>, <62, 5, 20, 15, 3, 0, 1, [0, 0, 0, 0, 0, 0, 1, 1]>, <63, 6, 21, 15, 3, 0, 1, [0, 0, 0, 0, 0, 0, 1, 1]>, <64, 7, 22, 15, 3, 0, 1, [0, 0, 0, 0, 0, 0, 1, 1]>, <65, 8, 23, 15, 3, 0, 1, [0, 0, 0, 0, 0, 0, 1, 1]>, <66, 9, 24, 15, 3, 0, 1, [0, 0, 0, 0, 0, 0, 1, 1]>, <67, 10, 25, 15, 3, 0, 1, [0, 0, 0, 0, 0, 0, 1, 1]>, <68, 11, 26, 15, 3, 0, 1, [0, 0, 0, 0, 0, 0, 1, 1]>, <69, 12, 27, 15, 3, 0, 1, [0, 0, 0, 0, 0, 0, 1, 1]>, <70, 13, 28, 15, 3, 0, 1, [0, 0, 0, 0, 0, 0, 1, 1]>, <71, 14, 29, 15, 3, 0, 1, [0, 0, 0, 0, 0, 0, 1, 1]>, <72, 0, 14, 14, 4, 0, 0, [0, 0, 0, 0, 1, 1, 0, 0]>, <73, 1, 15, 14, 4, 0, 0, [0, 0, 0, 0, 1, 1, 0, 0]>, <74, 2, 16, 14, 4, 0, 0, [0, 0, 0, 0, 1, 1, 0, 0]>, <75, 3, 17, 14, 4, 0, 0, [0, 0, 0, 0, 1, 1, 0, 0]>, <76, 4, 18, 14, 4, 0, 0, [0, 0, 0, 0, 1, 1, 0, 0]>, <77, 5, 19, 14, 4, 0, 0, [0, 0, 0, 0, 1, 1, 0, 0]>, <78, 6, 20, 14, 4, 0, 0, [0, 0, 0, 0, 1, 1, 0, 0]>, <79, 7, 21, 14, 4, 0, 0, [0, 0, 0, 0, 1, 1, 0, 0]>, <80, 8, 22, 14, 4, 0, 0, [0, 0, 0, 0, 1, 1, 0, 0]>, <81, 9, 23, 14, 4, 0, 0, [0, 0, 0, 0, 1, 1, 0, 0]>, <82, 10, 24, 14, 4, 0, 0, [0, 0, 0, 0, 1, 1, 0, 0]>, <83, 11, 25, 14, 4, 0, 0, [0, 0, 0, 0, 1, 1, 0, 0]>, <84, 12, 26, 14, 4, 0, 0, [0, 0, 0, 0, 1, 1, 0, 0]>, <85, 13, 27, 14, 4, 0, 0, [0, 0, 0, 0, 1, 1, 0, 0]>, <86, 14, 28, 14, 4, 0, 0, [0, 0, 0, 0, 1, 1, 0, 0]>, <87, 15, 29, 14, 4, 0, 0, [0, 0, 0, 0, 1, 1, 0, 0]>, <88, 0, 17, 17, 5, 0, 0, [1, 1, 0, 0, 0, 0, 0, 0]>, <89, 1, 18, 17, 5, 0, 0, [1, 1, 0, 0, 0, 0, 0, 0]>, <90, 2, 19, 17, 5, 0, 0, [1, 1, 0, 0, 0, 0, 0, 0]>, <91, 3, 20, 17, 5, 0, 0, [1, 1, 0, 0, 0, 0, 0, 0]>, <92, 4, 21, 17, 5, 0, 0, [1, 1, 0, 0, 0, 0, 0, 0]>, <93, 5, 22, 17, 5, 0, 0, [1, 1, 0, 0, 0, 0, 0, 0]>, <94, 6, 23, 17, 5, 0, 0, [1, 1, 0, 0, 0, 0, 0, 0]>, <95, 7, 24, 17, 5, 0, 0, [1, 1, 0, 0, 0, 0, 0, 0]>, <96, 8, 25, 17, 5, 0, 0, [1, 1, 0, 0, 0, 0, 0, 0]>, <97, 9, 26, 17, 5, 0, 0, [1, 1, 0, 0, 0, 0, 0, 0]>, <98, 10, 27, 17, 5, 0, 0, [1, 1, 0, 0, 0, 0, 0, 0]>, <99, 11, 28, 17, 5, 0, 0, [1, 1, 0, 0, 0, 0, 0, 0]>, <100, 12, 29, 17, 5, 0, 0, [1, 1, 0, 0, 0, 0, 0, 0]>, <101, 0, 13, 13, 6, 0, 0, [0, 1, 1, 0, 0, 0, 0, 0]>, <102, 1, 14, 13, 6, 0, 0, [0, 1, 1, 0, 0, 0, 0, 0]>, <103, 2, 15, 13, 6, 0, 0, [0, 1, 1, 0, 0, 0, 0, 0]>, <104, 3, 16, 13, 6, 0, 0, [0, 1, 1, 0, 0, 0, 0, 0]>, <105, 4, 17, 13, 6, 0, 0, [0, 1, 1, 0, 0, 0, 0, 0]>, <106, 5, 18, 13, 6, 0, 0, [0, 1, 1, 0, 0, 0, 0, 0]>, <107, 7, 20, 13, 6, 0, 0, [0, 1, 1, 0, 0, 0, 0, 0]>, <108, 8, 21, 13, 6, 0, 0, [0, 1, 1, 0, 0, 0, 0, 0]>, <109, 9, 22, 13, 6, 0, 0, [0, 1, 1, 0, 0, 0, 0, 0]>, <110, 10, 23, 13, 6, 0, 0, [0, 1, 1, 0, 0, 0, 0, 0]>, <111, 11, 24, 13, 6, 0, 0, [0, 1, 1, 0, 0, 0, 0, 0]>, <112, 12, 25, 13, 6, 0, 0, [0, 1, 1, 0, 0, 0, 0, 0]>, <113, 13, 26, 13, 6, 0, 0, [0, 1, 1, 0, 0, 0, 0, 0]>, <114, 14, 27, 13, 6, 0, 0, [0, 1, 1, 0, 0, 0, 0, 0]>, <115, 15, 28, 13, 6, 0, 0, [0, 1, 1, 0, 0, 0, 0, 0]>, <116, 16, 29, 13, 6, 0, 0, [0, 1, 1, 0, 0, 0, 0, 0]>, <117, 0, 18, 18, 7, 0, 0, [0, 0, 0, 0, 0, 1, 1, 0]>, <118, 1, 19, 18, 7, 0, 0, [0, 0, 0, 0, 0, 1, 1, 0]>, <119, 2, 20, 18, 7, 0, 0, [0, 0, 0, 0, 0, 1, 1, 0]>, <120, 3, 21, 18, 7, 0, 0, [0, 0, 0, 0, 0, 1, 1, 0]>, <121, 4, 22, 18, 7, 0, 0, [0, 0, 0, 0, 0, 1, 1, 0]>, <122, 5, 23, 18, 7, 0, 0, [0, 0, 0, 0, 0, 1, 1, 0]>, <123, 6, 24, 18, 7, 0, 0, [0, 0, 0, 0, 0, 1, 1, 0]>, <124, 7, 25, 18, 7, 0, 0, [0, 0, 0, 0, 0, 1, 1, 0]>, <125, 8, 26, 18, 7, 0, 0, [0, 0, 0, 0, 0, 1, 1, 0]>, <126, 9, 27, 18, 7, 0, 0, [0, 0, 0, 0, 0, 1, 1, 0]>, <127, 10, 28, 18, 7, 0, 0, [0, 0, 0, 0, 0, 1, 1, 0]>, <128, 11, 29, 18, 7, 0, 0, [0, 0, 0, 0, 0, 1, 1, 0]>, <129, 0, 18, 18, 8, 0, 1, [0, 0, 0, 0, 1, 1, 0, 0]>, <130, 1, 19, 18, 8, 0, 1, [0, 0, 0, 0, 1, 1, 0, 0]>, <131, 2, 20, 18, 8, 0, 1, [0, 0, 0, 0, 1, 1, 0, 0]>, <132, 3, 21, 18, 8, 0, 1, [0, 0, 0, 0, 1, 1, 0, 0]>, <133, 4, 22, 18, 8, 0, 1, [0, 0, 0, 0, 1, 1, 0, 0]>, <134, 5, 23, 18, 8, 0, 1, [0, 0, 0, 0, 1, 1, 0, 0]>, <135, 6, 24, 18, 8, 0, 1, [0, 0, 0, 0, 1, 1, 0, 0]>, <136, 7, 25, 18, 8, 0, 1, [0, 0, 0, 0, 1, 1, 0, 0]>, <137, 8, 26, 18, 8, 0, 1, [0, 0, 0, 0, 1, 1, 0, 0]>, <138, 9, 27, 18, 8, 0, 1, [0, 0, 0, 0, 1, 1, 0, 0]>, <139, 10, 28, 18, 8, 0, 1, [0, 0, 0, 0, 1, 1, 0, 0]>, <140, 11, 29, 18, 8, 0, 1, [0, 0, 0, 0, 1, 1, 0, 0]>, <141, 0, 17, 17, 9, 0, 0, [0, 0, 0, 0, 0, 1, 1, 0]>, <142, 1, 18, 17, 9, 0, 0, [0, 0, 0, 0, 0, 1, 1, 0]>, <143, 2, 19, 17, 9, 0, 0, [0, 0, 0, 0, 0, 1, 1, 0]>, <144, 3, 20, 17, 9, 0, 0, [0, 0, 0, 0, 0, 1, 1, 0]>, <145, 4, 21, 17, 9, 0, 0, [0, 0, 0, 0, 0, 1, 1, 0]>, <146, 5, 22, 17, 9, 0, 0, [0, 0, 0, 0, 0, 1, 1, 0]>, <147, 6, 23, 17, 9, 0, 0, [0, 0, 0, 0, 0, 1, 1, 0]>, <148, 7, 24, 17, 9, 0, 0, [0, 0, 0, 0, 0, 1, 1, 0]>, <149, 8, 25, 17, 9, 0, 0, [0, 0, 0, 0, 0, 1, 1, 0]>, <150, 9, 26, 17, 9, 0, 0, [0, 0, 0, 0, 0, 1, 1, 0]>, <151, 10, 27, 17, 9, 0, 0, [0, 0, 0, 0, 0, 1, 1, 0]>, <152, 11, 28, 17, 9, 0, 0, [0, 0, 0, 0, 0, 1, 1, 0]>, <153, 12, 29, 17, 9, 0, 0, [0, 0, 0, 0, 0, 1, 1, 0]>, <154, 0, 14, 14, 10, 0, 0, [0, 0, 1, 1, 0, 0, 0, 0]>, <155, 1, 15, 14, 10, 0, 0, [0, 0, 1, 1, 0, 0, 0, 0]>, <156, 2, 16, 14, 10, 0, 0, [0, 0, 1, 1, 0, 0, 0, 0]>, <157, 3, 17, 14, 10, 0, 0, [0, 0, 1, 1, 0, 0, 0, 0]>, <158, 4, 18, 14, 10, 0, 0, [0, 0, 1, 1, 0, 0, 0, 0]>, <159, 5, 19, 14, 10, 0, 0, [0, 0, 1, 1, 0, 0, 0, 0]>, <160, 6, 20, 14, 10, 0, 0, [0, 0, 1, 1, 0, 0, 0, 0]>, <161, 7, 21, 14, 10, 0, 0, [0, 0, 1, 1, 0, 0, 0, 0]>, <162, 8, 22, 14, 10, 0, 0, [0, 0, 1, 1, 0, 0, 0, 0]>, <163, 9, 23, 14, 10, 0, 0, [0, 0, 1, 1, 0, 0, 0, 0]>, <164, 10, 24, 14, 10, 0, 0, [0, 0, 1, 1, 0, 0, 0, 0]>, <165, 11, 25, 14, 10, 0, 0, [0, 0, 1, 1, 0, 0, 0, 0]>, <166, 12, 26, 14, 10, 0, 0, [0, 0, 1, 1, 0, 0, 0, 0]>, <167, 13, 27, 14, 10, 0, 0, [0, 0, 1, 1, 0, 0, 0, 0]>, <168, 14, 28, 14, 10, 0, 0, [0, 0, 1, 1, 0, 0, 0, 0]>, <169, 15, 29, 14, 10, 0, 0, [0, 0, 1, 1, 0, 0, 0, 0]>, <170, 0, 18, 18, 11, 0, 0, [0, 1, 1, 0, 0, 0, 0, 0]>, <171, 1, 19, 18, 11, 0, 0, [0, 1, 1, 0, 0, 0, 0, 0]>, <172, 2, 20, 18, 11, 0, 0, [0, 1, 1, 0, 0, 0, 0, 0]>, <173, 3, 21, 18, 11, 0, 0, [0, 1, 1, 0, 0, 0, 0, 0]>, <174, 4, 22, 18, 11, 0, 0, [0, 1, 1, 0, 0, 0, 0, 0]>, <175, 5, 23, 18, 11, 0, 0, [0, 1, 1, 0, 0, 0, 0, 0]>, <176, 6, 24, 18, 11, 0, 0, [0, 1, 1, 0, 0, 0, 0, 0]>, <177, 7, 25, 18, 11, 0, 0, [0, 1, 1, 0, 0, 0, 0, 0]>, <178, 8, 26, 18, 11, 0, 0, [0, 1, 1, 0, 0, 0, 0, 0]>, <179, 9, 27, 18, 11, 0, 0, [0, 1, 1, 0, 0, 0, 0, 0]>, <180, 10, 28, 18, 11, 0, 0, [0, 1, 1, 0, 0, 0, 0, 0]>, <181, 11, 29, 18, 11, 0, 0, [0, 1, 1, 0, 0, 0, 0, 0]>, <182, 0, 18, 18, 12, 0, 1, [0, 0, 0, 0, 1, 1, 0, 0]>, <183, 1, 19, 18, 12, 0, 1, [0, 0, 0, 0, 1, 1, 0, 0]>, <184, 2, 20, 18, 12, 0, 1, [0, 0, 0, 0, 1, 1, 0, 0]>, <185, 3, 21, 18, 12, 0, 1, [0, 0, 0, 0, 1, 1, 0, 0]>, <186, 4, 22, 18, 12, 0, 1, [0, 0, 0, 0, 1, 1, 0, 0]>, <187, 5, 23, 18, 12, 0, 1, [0, 0, 0, 0, 1, 1, 0, 0]>, <188, 6, 24, 18, 12, 0, 1, [0, 0, 0, 0, 1, 1, 0, 0]>, <189, 7, 25, 18, 12, 0, 1, [0, 0, 0, 0, 1, 1, 0, 0]>, <190, 8, 26, 18, 12, 0, 1, [0, 0, 0, 0, 1, 1, 0, 0]>, <191, 9, 27, 18, 12, 0, 1, [0, 0, 0, 0, 1, 1, 0, 0]>, <192, 10, 28, 18, 12, 0, 1, [0, 0, 0, 0, 1, 1, 0, 0]>, <193, 11, 29, 18, 12, 0, 1, [0, 0, 0, 0, 1, 1, 0, 0]>, <194, 0, 17, 17, 13, 1, 0, [1, 0, 0, 0, 0, 0, 0, 1]>, <195, 1, 18, 17, 13, 1, 0, [1, 0, 0, 0, 0, 0, 0, 1]>, <196, 2, 19, 17, 13, 1, 0, [1, 0, 0, 0, 0, 0, 0, 1]>, <197, 3, 20, 17, 13, 1, 0, [1, 0, 0, 0, 0, 0, 0, 1]>, <198, 4, 21, 17, 13, 1, 0, [1, 0, 0, 0, 0, 0, 0, 1]>, <199, 5, 22, 17, 13, 1, 0, [1, 0, 0, 0, 0, 0, 0, 1]>, <200, 6, 23, 17, 13, 1, 0, [1, 0, 0, 0, 0, 0, 0, 1]>, <201, 7, 24, 17, 13, 1, 0, [1, 0, 0, 0, 0, 0, 0, 1]>, <202, 8, 25, 17, 13, 1, 0, [1, 0, 0, 0, 0, 0, 0, 1]>, <203, 9, 26, 17, 13, 1, 0, [1, 0, 0, 0, 0, 0, 0, 1]>, <204, 10, 27, 17, 13, 1, 0, [1, 0, 0, 0, 0, 0, 0, 1]>, <205, 11, 28, 17, 13, 1, 0, [1, 0, 0, 0, 0, 0, 0, 1]>, <206, 12, 29, 17, 13, 1, 0, [1, 0, 0, 0, 0, 0, 0, 1]>, <207, 0, 13, 13, 14, 0, 1, [0, 1, 1, 0, 0, 0, 0, 0]>, <208, 1, 14, 13, 14, 0, 1, [0, 1, 1, 0, 0, 0, 0, 0]>, <209, 2, 15, 13, 14, 0, 1, [0, 1, 1, 0, 0, 0, 0, 0]>, <210, 3, 16, 13, 14, 0, 1, [0, 1, 1, 0, 0, 0, 0, 0]>, <211, 4, 17, 13, 14, 0, 1, [0, 1, 1, 0, 0, 0, 0, 0]>, <212, 5, 18, 13, 14, 0, 1, [0, 1, 1, 0, 0, 0, 0, 0]>, <213, 7, 20, 13, 14, 0, 1, [0, 1, 1, 0, 0, 0, 0, 0]>, <214, 8, 21, 13, 14, 0, 1, [0, 1, 1, 0, 0, 0, 0, 0]>, <215, 9, 22, 13, 14, 0, 1, [0, 1, 1, 0, 0, 0, 0, 0]>, <216, 10, 23, 13, 14, 0, 1, [0, 1, 1, 0, 0, 0, 0, 0]>, <217, 11, 24, 13, 14, 0, 1, [0, 1, 1, 0, 0, 0, 0, 0]>, <218, 12, 25, 13, 14, 0, 1, [0, 1, 1, 0, 0, 0, 0, 0]>, <219, 13, 26, 13, 14, 0, 1, [0, 1, 1, 0, 0, 0, 0, 0]>, <220, 14, 27, 13, 14, 0, 1, [0, 1, 1, 0, 0, 0, 0, 0]>, <221, 15, 28, 13, 14, 0, 1, [0, 1, 1, 0, 0, 0, 0, 0]>, <222, 16, 29, 13, 14, 0, 1, [0, 1, 1, 0, 0, 0, 0, 0]>, <223, 0, 15, 15, 15, 0, 0, [0, 0, 0, 0, 0, 1, 1, 0]>, <224, 1, 16, 15, 15, 0, 0, [0, 0, 0, 0, 0, 1, 1, 0]>, <225, 2, 17, 15, 15, 0, 0, [0, 0, 0, 0, 0, 1, 1, 0]>, <226, 3, 18, 15, 15, 0, 0, [0, 0, 0, 0, 0, 1, 1, 0]>, <227, 4, 19, 15, 15, 0, 0, [0, 0, 0, 0, 0, 1, 1, 0]>, <228, 5, 20, 15, 15, 0, 0, [0, 0, 0, 0, 0, 1, 1, 0]>, <229, 6, 21, 15, 15, 0, 0, [0, 0, 0, 0, 0, 1, 1, 0]>, <230, 7, 22, 15, 15, 0, 0, [0, 0, 0, 0, 0, 1, 1, 0]>, <231, 8, 23, 15, 15, 0, 0, [0, 0, 0, 0, 0, 1, 1, 0]>, <232, 9, 24, 15, 15, 0, 0, [0, 0, 0, 0, 0, 1, 1, 0]>, <233, 10, 25, 15, 15, 0, 0, [0, 0, 0, 0, 0, 1, 1, 0]>, <234, 11, 26, 15, 15, 0, 0, [0, 0, 0, 0, 0, 1, 1, 0]>, <235, 12, 27, 15, 15, 0, 0, [0, 0, 0, 0, 0, 1, 1, 0]>, <236, 13, 28, 15, 15, 0, 0, [0, 0, 0, 0, 0, 1, 1, 0]>, <237, 14, 29, 15, 15, 0, 0, [0, 0, 0, 0, 0, 1, 1, 0]>, <238, 0, 17, 17, 16, 0, 1, [0, 1, 1, 0, 0, 0, 0, 0]>, <239, 1, 18, 17, 16, 0, 1, [0, 1, 1, 0, 0, 0, 0, 0]>, <240, 2, 19, 17, 16, 0, 1, [0, 1, 1, 0, 0, 0, 0, 0]>, <241, 3, 20, 17, 16, 0, 1, [0, 1, 1, 0, 0, 0, 0, 0]>, <242, 4, 21, 17, 16, 0, 1, [0, 1, 1, 0, 0, 0, 0, 0]>, <243, 5, 22, 17, 16, 0, 1, [0, 1, 1, 0, 0, 0, 0, 0]>, <244, 6, 23, 17, 16, 0, 1, [0, 1, 1, 0, 0, 0, 0, 0]>, <245, 7, 24, 17, 16, 0, 1, [0, 1, 1, 0, 0, 0, 0, 0]>, <246, 8, 25, 17, 16, 0, 1, [0, 1, 1, 0, 0, 0, 0, 0]>, <247, 9, 26, 17, 16, 0, 1, [0, 1, 1, 0, 0, 0, 0, 0]>, <248, 10, 27, 17, 16, 0, 1, [0, 1, 1, 0, 0, 0, 0, 0]>, <249, 11, 28, 17, 16, 0, 1, [0, 1, 1, 0, 0, 0, 0, 0]>, <250, 12, 29, 17, 16, 0, 1, [0, 1, 1, 0, 0, 0, 0, 0]>, <251, 0, 17, 17, 17, 0, 0, [1, 1, 0, 0, 0, 0, 0, 0]>, <252, 1, 18, 17, 17, 0, 0, [1, 1, 0, 0, 0, 0, 0, 0]>, <253, 2, 19, 17, 17, 0, 0, [1, 1, 0, 0, 0, 0, 0, 0]>, <254, 3, 20, 17, 17, 0, 0, [1, 1, 0, 0, 0, 0, 0, 0]>, <255, 4, 21, 17, 17, 0, 0, [1, 1, 0, 0, 0, 0, 0, 0]>, <256, 5, 22, 17, 17, 0, 0, [1, 1, 0, 0, 0, 0, 0, 0]>, <257, 6, 23, 17, 17, 0, 0, [1, 1, 0, 0, 0, 0, 0, 0]>, <258, 7, 24, 17, 17, 0, 0, [1, 1, 0, 0, 0, 0, 0, 0]>, <259, 8, 25, 17, 17, 0, 0, [1, 1, 0, 0, 0, 0, 0, 0]>, <260, 9, 26, 17, 17, 0, 0, [1, 1, 0, 0, 0, 0, 0, 0]>, <261, 10, 27, 17, 17, 0, 0, [1, 1, 0, 0, 0, 0, 0, 0]>, <262, 11, 28, 17, 17, 0, 0, [1, 1, 0, 0, 0, 0, 0, 0]>, <263, 12, 29, 17, 17, 0, 0, [1, 1, 0, 0, 0, 0, 0, 0]>, <264, 0, 13, 13, 18, 0, 1, [0, 0, 1, 1, 0, 0, 0, 0]>, <265, 1, 14, 13, 18, 0, 1, [0, 0, 1, 1, 0, 0, 0, 0]>, <266, 2, 15, 13, 18, 0, 1, [0, 0, 1, 1, 0, 0, 0, 0]>, <267, 3, 16, 13, 18, 0, 1, [0, 0, 1, 1, 0, 0, 0, 0]>, <268, 4, 17, 13, 18, 0, 1, [0, 0, 1, 1, 0, 0, 0, 0]>, <269, 5, 18, 13, 18, 0, 1, [0, 0, 1, 1, 0, 0, 0, 0]>, <270, 7, 20, 13, 18, 0, 1, [0, 0, 1, 1, 0, 0, 0, 0]>, <271, 8, 21, 13, 18, 0, 1, [0, 0, 1, 1, 0, 0, 0, 0]>, <272, 9, 22, 13, 18, 0, 1, [0, 0, 1, 1, 0, 0, 0, 0]>, <273, 10, 23, 13, 18, 0, 1, [0, 0, 1, 1, 0, 0, 0, 0]>, <274, 11, 24, 13, 18, 0, 1, [0, 0, 1, 1, 0, 0, 0, 0]>, <275, 12, 25, 13, 18, 0, 1, [0, 0, 1, 1, 0, 0, 0, 0]>, <276, 13, 26, 13, 18, 0, 1, [0, 0, 1, 1, 0, 0, 0, 0]>, <277, 14, 27, 13, 18, 0, 1, [0, 0, 1, 1, 0, 0, 0, 0]>, <278, 15, 28, 13, 18, 0, 1, [0, 0, 1, 1, 0, 0, 0, 0]>, <279, 16, 29, 13, 18, 0, 1, [0, 0, 1, 1, 0, 0, 0, 0]>, <280, 0, 16, 16, 19, 0, 0, [0, 0, 0, 1, 1, 0, 0, 0]>, <281, 1, 17, 16, 19, 0, 0, [0, 0, 0, 1, 1, 0, 0, 0]>, <282, 2, 18, 16, 19, 0, 0, [0, 0, 0, 1, 1, 0, 0, 0]>, <283, 3, 19, 16, 19, 0, 0, [0, 0, 0, 1, 1, 0, 0, 0]>, <284, 4, 20, 16, 19, 0, 0, [0, 0, 0, 1, 1, 0, 0, 0]>, <285, 5, 21, 16, 19, 0, 0, [0, 0, 0, 1, 1, 0, 0, 0]>, <286, 6, 22, 16, 19, 0, 0, [0, 0, 0, 1, 1, 0, 0, 0]>, <287, 7, 23, 16, 19, 0, 0, [0, 0, 0, 1, 1, 0, 0, 0]>, <288, 8, 24, 16, 19, 0, 0, [0, 0, 0, 1, 1, 0, 0, 0]>, <289, 9, 25, 16, 19, 0, 0, [0, 0, 0, 1, 1, 0, 0, 0]>, <290, 10, 26, 16, 19, 0, 0, [0, 0, 0, 1, 1, 0, 0, 0]>, <291, 11, 27, 16, 19, 0, 0, [0, 0, 0, 1, 1, 0, 0, 0]>, <292, 12, 28, 16, 19, 0, 0, [0, 0, 0, 1, 1, 0, 0, 0]>, <293, 13, 29, 16, 19, 0, 0, [0, 0, 0, 1, 1, 0, 0, 0]>, <294, 0, 17, 17, 20, 1, 0, [0, 0, 0, 0, 1, 1, 0, 0]>, <295, 1, 18, 17, 20, 1, 0, [0, 0, 0, 0, 1, 1, 0, 0]>, <296, 2, 19, 17, 20, 1, 0, [0, 0, 0, 0, 1, 1, 0, 0]>, <297, 3, 20, 17, 20, 1, 0, [0, 0, 0, 0, 1, 1, 0, 0]>, <298, 4, 21, 17, 20, 1, 0, [0, 0, 0, 0, 1, 1, 0, 0]>, <299, 5, 22, 17, 20, 1, 0, [0, 0, 0, 0, 1, 1, 0, 0]>, <300, 6, 23, 17, 20, 1, 0, [0, 0, 0, 0, 1, 1, 0, 0]>, <301, 7, 24, 17, 20, 1, 0, [0, 0, 0, 0, 1, 1, 0, 0]>, <302, 8, 25, 17, 20, 1, 0, [0, 0, 0, 0, 1, 1, 0, 0]>, <303, 9, 26, 17, 20, 1, 0, [0, 0, 0, 0, 1, 1, 0, 0]>, <304, 10, 27, 17, 20, 1, 0, [0, 0, 0, 0, 1, 1, 0, 0]>, <305, 11, 28, 17, 20, 1, 0, [0, 0, 0, 0, 1, 1, 0, 0]>, <306, 12, 29, 17, 20, 1, 0, [0, 0, 0, 0, 1, 1, 0, 0]>, <307, 0, 14, 14, 21, 0, 0, [0, 0, 0, 0, 0, 0, 1, 1]>, <308, 1, 15, 14, 21, 0, 0, [0, 0, 0, 0, 0, 0, 1, 1]>, <309, 2, 16, 14, 21, 0, 0, [0, 0, 0, 0, 0, 0, 1, 1]>, <310, 3, 17, 14, 21, 0, 0, [0, 0, 0, 0, 0, 0, 1, 1]>, <311, 4, 18, 14, 21, 0, 0, [0, 0, 0, 0, 0, 0, 1, 1]>, <312, 5, 19, 14, 21, 0, 0, [0, 0, 0, 0, 0, 0, 1, 1]>, <313, 6, 20, 14, 21, 0, 0, [0, 0, 0, 0, 0, 0, 1, 1]>, <314, 7, 21, 14, 21, 0, 0, [0, 0, 0, 0, 0, 0, 1, 1]>, <315, 8, 22, 14, 21, 0, 0, [0, 0, 0, 0, 0, 0, 1, 1]>, <316, 9, 23, 14, 21, 0, 0, [0, 0, 0, 0, 0, 0, 1, 1]>, <317, 10, 24, 14, 21, 0, 0, [0, 0, 0, 0, 0, 0, 1, 1]>, <318, 11, 25, 14, 21, 0, 0, [0, 0, 0, 0, 0, 0, 1, 1]>, <319, 12, 26, 14, 21, 0, 0, [0, 0, 0, 0, 0, 0, 1, 1]>, <320, 13, 27, 14, 21, 0, 0, [0, 0, 0, 0, 0, 0, 1, 1]>, <321, 14, 28, 14, 21, 0, 0, [0, 0, 0, 0, 0, 0, 1, 1]>, <322, 15, 29, 14, 21, 0, 0, [0, 0, 0, 0, 0, 0, 1, 1]>};
